33D32945 STP File, STP Format Version 1.0

SECTION Comments
Name "edge_n10_d4_s26"
Problem "Euclidean Steiner Tree Problem"
Remark "Generated with STPGenerator. 4 dimensions."
END

SECTION Graph
Nodes 10
END

SECTION Coordinates
DDDD 0 0.7955457819 0.7955457819 0.7955457819 0.7955457819
DDDD 1 0.2153102822 0.2153102822 0.2153102822 0.2153102822
DDDD 2 0.3426214272 0.3426214272 0.3426214272 0.3426214272
DDDD 3 0.2961611940 0.2961611940 0.2961611940 0.2961611940
DDDD 4 0.2554381654 0.2554381654 0.2554381654 0.2554381654
DDDD 5 0.7100804400 0.7100804400 0.7100804400 0.7100804400
DDDD 6 0.8547150078 0.8547150078 0.8547150078 0.8547150078
DDDD 7 0.6357949691 0.6357949691 0.6357949691 0.6357949691
DDDD 8 0.4054190886 0.4054190886 0.4054190886 0.4054190886
DDDD 9 0.6635035848 0.6635035848 0.6635035848 0.6635035848
END
